93
[[-1, 0, 0, 0, 0, 0, 0, 35354, 0, 10180, 0, 0, 44882, 0, 0, 0, 28257, 0, 0, 0, 0, 0, 0, 0, 0, 0, 0, 0, 0, 0, 0, 0, 0, 0, 0, 31616, 0, 0, 0, 0, 0, 9383, 8271, 0, 0, 18341, 0, 41377, 0, 43986, 0, 0, 44829, 33036, 35392, 0, 0, 0, 0, 0, 31768, 0, 0, 0, 34376, 0, 0, 38929, 0, 0, 0, 0, 0, 0, 0, 0, 0, 0, 0, 0, 5562, 25968, 30918, 0, 0, 0, 0, 0, 30051, 0, 0, 0, 0],[0, -1, 0, 23951, 0, 43364, 0, 9511, 0, 43190, 0, 0, 0, 0, 40276, 0, 0, 0, 33359, 0, 46153, 0, 0, 0, 0, 0, 45128, 0, 45230, 0, 45897, 41705, 0, 32130, 0, 37982, 0, 0, 42761, 0, 0, 33878, 0, 37732, 37615, 0, 0, 0, 0, 0, 0, 0, 0, 0, 0, 0, 0, 32353, 0, 19920, 0, 0, 0, 42805, 0, 20800, 6059, 0, 0, 0, 0, 0, 0, 30264, 0, 36627, 0, 0, 0, 39292, 0, 38032, 9895, 44254, 0, 0, 0, 0, 0, 0, 0, 0, 26195],[0, 0, -1, 0, 5886, 42838, 0, 0, 0, 38917, 0, 0, 0, 24950, 12999, 26912, 43153, 0, 0, 0, 0, 0, 0, 0, 0, 29454, 0, 0, 0, 13592, 0, 0, 0, 0, 35914, 0, 43694, 20480, 33234, 0, 30390, 0, 0, 23649, 0, 0, 34784, 0, 0, 0, 37321, 0, 0, 45013, 0, 30817, 0, 0, 8575, 0, 25555, 0, 0, 0, 0, 0, 37204, 0, 0, 0, 0, 33341, 0, 0, 0, 19637, 0, 0, 0, 0, 0, 21058, 17943, 0, 46155, 0, 21844, 0, 0, 0, 0, 0, 0],[0, 23951, 0, -1, 0, 0, 0, 0, 33140, 0, 0, 40967, 0, 0, 36776, 31261, 0, 0, 0, 0, 0, 0, 0, 0, 34381, 0, 0, 0, 0, 13377, 0, 0, 0, 0, 0, 32413, 0, 0, 0, 0, 0, 44134, 0, 0, 0, 0, 0, 0, 34375, 0, 0, 0, 40415, 0, 0, 0, 0, 0, 0, 0, 0, 0, 28103, 0, 38347, 0, 32051, 0, 0, 39213, 36213, 0, 7498, 0, 0, 0, 0, 0, 26183, 0, 13312, 0, 0, 0, 0, 42465, 40477, 28882, 0, 0, 0, 0, 34217],[0, 0, 5886, 0, -1, 0, 0, 0, 0, 37008, 0, 0, 0, 0, 0, 0, 0, 0, 0, 17082, 0, 0, 0, 28376, 45022, 0, 35000, 0, 0, 0, 35290, 0, 43128, 0, 0, 0, 32631, 0, 0, 31285, 0, 0, 0, 0, 0, 0, 0, 0, 0, 0, 29899, 20503, 0, 0, 0, 0, 0, 0, 0, 21023, 0, 0, 0, 0, 0, 0, 0, 0, 30758, 43791, 0, 0, 0, 0, 0, 0, 0, 0, 32802, 0, 0, 0, 0, 7993, 0, 13663, 0, 0, 0, 34415, 0, 44165, 0],[0, 43364, 42838, 0, 0, -1, 16989, 42869, 0, 36084, 0, 21373, 0, 0, 0, 35045, 0, 0, 0, 0, 0, 26176, 0, 0, 0, 0, 44022, 0, 0, 0, 0, 0, 0, 0, 36903, 27244, 28189, 0, 0, 0, 0, 22921, 0, 0, 0, 0, 0, 35871, 0, 29477, 0, 0, 0, 0, 0, 0, 0, 9056, 39802, 32274, 0, 0, 43701, 0, 0, 0, 0, 36243, 0, 0, 0, 0, 0, 0, 0, 39577, 0, 0, 0, 44170, 0, 23210, 0, 0, 25623, 38578, 0, 0, 0, 0, 0, 46036, 0],[0, 0, 0, 0, 0, 16989, -1, 0, 0, 35171, 37306, 0, 11916, 29596, 41650, 0, 40354, 0, 0, 0, 0, 0, 0, 0, 0, 43397, 15317, 0, 0, 0, 0, 0, 0, 40543, 22224, 0, 26087, 0, 44540, 0, 0, 0, 41132, 0, 15273, 0, 15768, 0, 0, 0, 0, 0, 0, 0, 0, 0, 0, 0, 0, 33527, 0, 0, 0, 0, 0, 0, 0, 0, 0, 0, 0, 0, 0, 0, 42113, 0, 0, 0, 23693, 0, 0, 0, 0, 0, 0, 17699, 0, 45032, 0, 0, 0, 0, 0],[35354, 9511, 0, 0, 0, 42869, 0, -1, 0, 0, 39913, 39569, 0, 0, 0, 0, 0, 21736, 0, 0, 0, 0, 0, 0, 0, 0, 0, 41412, 42924, 0, 0, 0, 0, 0, 0, 0, 0, 0, 0, 0, 0, 0, 15132, 0, 33279, 0, 0, 0, 0, 0, 0, 0, 0, 0, 0, 0, 0, 0, 0, 43117, 0, 0, 0, 0, 0, 0, 0, 0, 18304, 0, 0, 0, 0, 0, 0, 0, 32368, 38132, 0, 0, 42599, 0, 42751, 37542, 33636, 0, 0, 39572, 29138, 38991, 0, 0, 43551],[0, 0, 0, 33140, 0, 0, 0, 0, -1, 0, 42267, 0, 0, 0, 0, 0, 43099, 0, 0, 0, 0, 24057, 0, 0, 0, 0, 0, 0, 43375, 0, 35252, 0, 0, 0, 0, 28341, 0, 43003, 42289, 0, 42157, 38558, 0, 0, 33897, 0, 0, 0, 44922, 29366, 0, 0, 0, 0, 25368, 0, 0, 0, 38606, 0, 0, 0, 0, 0, 0, 27483, 6386, 0, 0, 0, 40086, 0, 0, 0, 0, 0, 0, 0, 0, 0, 0, 0, 16906, 0, 0, 0, 0, 0, 42734, 45734, 42741, 0, 0],[10180, 43190, 38917, 0, 37008, 36084, 35171, 0, 0, -1, 0, 0, 0, 11456, 42385, 13439, 0, 14264, 0, 0, 0, 0, 0, 10836, 30000, 0, 0, 0, 0, 0, 25407, 0, 0, 0, 0, 0, 0, 0, 0, 0, 0, 0, 0, 0, 28833, 0, 0, 0, 0, 0, 0, 33213, 38546, 0, 0, 0, 46105, 41732, 23689, 0, 0, 0, 0, 0, 0, 0, 0, 0, 12690, 0, 36117, 0, 44185, 0, 0, 45170, 0, 0, 41967, 0, 0, 0, 0, 0, 0, 0, 45395, 0, 32712, 0, 0, 0, 0],[0, 0, 0, 0, 0, 0, 37306, 39913, 42267, 0, -1, 9687, 0, 0, 0, 0, 0, 0, 14607, 29266, 0, 0, 0, 17622, 0, 0, 0, 0, 0, 0, 0, 0, 18619, 0, 24583, 45822, 0, 0, 0, 0, 41326, 0, 21590, 0, 0, 0, 32184, 0, 0, 0, 0, 0, 0, 38398, 0, 0, 33303, 39472, 0, 0, 0, 0, 34892, 0, 0, 23470, 0, 0, 0, 0, 40108, 37045, 0, 38240, 0, 0, 0, 0, 0, 0, 0, 17640, 0, 30011, 31369, 6722, 0, 0, 0, 0, 0, 0, 0],[0, 0, 0, 40967, 0, 21373, 0, 39569, 0, 0, 9687, -1, 41113, 0, 0, 0, 0, 0, 24861, 39277, 0, 26347, 0, 42124, 0, 0, 0, 0, 0, 0, 0, 46156, 0, 0, 38369, 0, 0, 0, 0, 0, 0, 0, 0, 0, 0, 0, 0, 44565, 0, 0, 0, 0, 0, 0, 21211, 0, 0, 0, 0, 26750, 0, 0, 0, 0, 0, 35937, 0, 30895, 34471, 0, 0, 0, 0, 5327, 0, 0, 0, 0, 0, 0, 0, 0, 0, 0, 0, 0, 0, 0, 42974, 32185, 0, 0, 0],[44882, 0, 0, 0, 0, 0, 11916, 0, 0, 0, 0, 41113, -1, 0, 0, 0, 0, 35408, 45234, 0, 0, 0, 0, 0, 0, 0, 0, 19858, 0, 6215, 0, 0, 0, 0, 14371, 0, 31975, 28436, 45144, 18111, 0, 0, 0, 0, 0, 0, 18121, 43020, 0, 0, 0, 46166, 0, 46140, 0, 0, 0, 38923, 0, 36158, 0, 0, 0, 0, 33580, 0, 0, 0, 0, 45959, 0, 0, 39770, 0, 0, 41844, 0, 7757, 37520, 0, 11500, 0, 27116, 0, 0, 0, 0, 0, 0, 0, 0, 0, 30949],[0, 0, 24950, 0, 0, 0, 29596, 0, 0, 11456, 0, 0, 0, -1, 0, 0, 39898, 0, 0, 0, 31261, 14374, 0, 0, 0, 0, 30260, 0, 0, 0, 32112, 42187, 0, 0, 0, 13099, 0, 0, 0, 0, 0, 0, 0, 0, 0, 0, 0, 38067, 0, 21940, 0, 0, 0, 0, 0, 0, 29446, 0, 0, 0, 15817, 38988, 39559, 0, 0, 0, 0, 0, 0, 0, 35387, 32006, 0, 0, 0, 27415, 0, 23458, 38018, 0, 0, 0, 17293, 0, 44783, 0, 0, 0, 21534, 22111, 0, 31887, 0],[0, 40276, 12999, 36776, 0, 0, 41650, 0, 0, 42385, 0, 0, 0, 0, -1, 0, 45725, 0, 29036, 0, 0, 0, 0, 25917, 0, 30128, 0, 0, 0, 0, 0, 0, 0, 11133, 0, 0, 0, 0, 0, 0, 0, 24891, 0, 0, 0, 0, 0, 0, 0, 0, 0, 0, 43106, 10130, 0, 0, 0, 0, 0, 0, 26994, 42272, 0, 0, 0, 0, 25546, 0, 0, 37919, 41169, 43655, 0, 39490, 10375, 0, 5104, 0, 0, 0, 0, 0, 0, 0, 0, 0, 0, 44850, 18250, 0, 0, 0, 0],[0, 0, 26912, 31261, 0, 35045, 0, 0, 0, 13439, 0, 0, 0, 0, 0, -1, 0, 22234, 23158, 0, 0, 0, 0, 4477, 28518, 0, 0, 0, 0, 0, 0, 0, 41602, 0, 0, 0, 28816, 26249, 0, 0, 0, 0, 0, 30509, 0, 0, 27085, 10252, 29436, 0, 0, 0, 20245, 0, 0, 0, 27941, 0, 0, 0, 0, 0, 0, 36581, 0, 41809, 43380, 33892, 36850, 0, 0, 0, 0, 17138, 0, 25525, 0, 41267, 0, 0, 0, 0, 0, 0, 0, 14695, 0, 0, 0, 0, 0, 0, 23766],[28257, 0, 43153, 0, 0, 0, 40354, 0, 43099, 0, 0, 0, 0, 39898, 45725, 0, -1, 0, 0, 0, 0, 0, 0, 42653, 42453, 0, 0, 19670, 0, 0, 0, 0, 35609, 0, 0, 37378, 0, 0, 24746, 0, 0, 0, 0, 0, 0, 0, 0, 0, 0, 0, 0, 0, 0, 0, 0, 0, 0, 0, 35717, 0, 24090, 37091, 0, 37591, 0, 0, 0, 0, 0, 33796, 0, 0, 40846, 0, 0, 0, 0, 0, 44656, 0, 0, 0, 0, 0, 0, 31074, 0, 0, 0, 37503, 0, 0, 0],[0, 0, 0, 0, 0, 0, 0, 21736, 0, 14264, 0, 0, 35408, 0, 0, 22234, 0, -1, 32841, 43162, 40187, 38802, 7141, 0, 0, 0, 0, 19711, 0, 0, 0, 0, 40305, 0, 0, 0, 0, 0, 17577, 0, 0, 0, 0, 0, 0, 0, 0, 37696, 0, 23124, 43547, 0, 39278, 38459, 0, 0, 0, 45011, 0, 0, 0, 0, 0, 0, 0, 0, 0, 0, 0, 0, 0, 0, 28857, 36321, 0, 0, 0, 0, 0, 0, 0, 0, 0, 0, 0, 0, 38861, 0, 41636, 0, 0, 0, 0],[0, 33359, 0, 0, 0, 0, 0, 0, 0, 0, 14607, 24861, 45234, 0, 29036, 23158, 0, 32841, -1, 20962, 38704, 0, 0, 25644, 0, 0, 0, 0, 24423, 0, 24884, 12350, 31282, 0, 0, 23011, 0, 0, 0, 0, 44846, 28397, 11113, 0, 0, 0, 0, 0, 0, 33734, 25201, 42496, 0, 0, 0, 41039, 18882, 23165, 0, 0, 0, 22480, 0, 0, 11243, 0, 0, 0, 0, 0, 41474, 24746, 0, 41055, 42492, 26272, 0, 0, 0, 0, 0, 0, 0, 0, 0, 6139, 0, 0, 0, 0, 0, 0, 43905],[0, 0, 0, 0, 17082, 0, 0, 0, 0, 0, 29266, 39277, 0, 0, 0, 0, 0, 43162, 20962, -1, 0, 0, 29925, 0, 0, 0, 0, 33422, 0, 38404, 45285, 0, 0, 22978, 0, 0, 40234, 0, 39165, 0, 0, 0, 0, 0, 0, 0, 0, 0, 24519, 0, 0, 0, 0, 0, 0, 0, 45358, 0, 0, 45614, 0, 0, 40150, 0, 0, 0, 0, 45142, 30560, 0, 32695, 0, 0, 23504, 32579, 0, 0, 0, 40192, 0, 0, 41642, 0, 46020, 32605, 18642, 43034, 0, 0, 0, 38843, 0, 0],[0, 46153, 0, 0, 0, 0, 0, 0, 0, 0, 0, 0, 0, 31261, 0, 0, 0, 40187, 38704, 0, -1, 0, 15977, 45457, 0, 0, 0, 40262, 0, 0, 32740, 0, 0, 0, 0, 44168, 27833, 0, 13079, 0, 0, 33526, 35198, 0, 0, 0, 0, 0, 0, 0, 0, 42173, 40088, 0, 38180, 0, 13906, 44512, 0, 27154, 0, 0, 0, 0, 22442, 0, 0, 0, 0, 0, 43697, 0, 0, 44000, 42929, 0, 0, 29315, 0, 0, 0, 0, 0, 0, 0, 41273, 8783, 0, 27131, 37556, 0, 20509, 0],[0, 0, 0, 0, 0, 26176, 0, 0, 24057, 0, 0, 26347, 0, 14374, 0, 0, 0, 38802, 0, 0, 0, -1, 0, 0, 37586, 42826, 44102, 0, 0, 0, 0, 0, 11064, 34495, 0, 0, 0, 0, 0, 35212, 22302, 0, 0, 0, 0, 0, 0, 0, 41283, 0, 31780, 0, 0, 33595, 44366, 0, 36327, 0, 42647, 0, 0, 0, 0, 9770, 32024, 0, 0, 0, 0, 0, 26344, 0, 45135, 0, 39828, 0, 0, 35175, 0, 0, 42977, 0, 0, 0, 0, 0, 0, 0, 0, 0, 0, 0, 0],[0, 0, 0, 0, 0, 0, 0, 0, 0, 0, 0, 0, 0, 0, 0, 0, 0, 7141, 0, 29925, 15977, 0, -1, 27905, 0, 0, 0, 0, 0, 0, 0, 23753, 0, 0, 0, 41047, 0, 0, 0, 0, 0, 0, 0, 0, 18619, 0, 0, 0, 24131, 3563, 27327, 23304, 30926, 0, 0, 0, 32032, 35704, 0, 0, 0, 0, 0, 0, 0, 0, 13075, 0, 22003, 0, 0, 0, 0, 0, 39518, 0, 0, 19777, 41120, 0, 0, 0, 0, 0, 0, 0, 0, 0, 0, 8436, 0, 0, 0],[0, 0, 0, 0, 28376, 0, 0, 0, 0, 10836, 17622, 42124, 0, 0, 25917, 4477, 42653, 0, 25644, 0, 45457, 0, 27905, -1, 0, 45163, 0, 0, 0, 0, 0, 0, 0, 42231, 0, 46021, 43888, 0, 0, 28899, 0, 27948, 0, 0, 0, 0, 0, 0, 10037, 28332, 0, 0, 0, 0, 0, 13816, 0, 10984, 0, 0, 22764, 0, 43611, 0, 16101, 15521, 0, 20659, 0, 0, 21439, 0, 0, 0, 0, 0, 0, 0, 0, 41677, 0, 7540, 26196, 0, 0, 0, 0, 0, 18528, 0, 0, 0, 0],[0, 0, 0, 34381, 45022, 0, 0, 0, 0, 30000, 0, 0, 0, 0, 0, 28518, 42453, 0, 0, 0, 0, 37586, 0, 0, -1, 0, 0, 0, 0, 35823, 0, 35991, 0, 0, 0, 0, 0, 0, 0, 0, 32635, 0, 0, 0, 0, 0, 0, 0, 0, 18305, 42300, 0, 0, 0, 44320, 0, 25870, 34127, 44649, 0, 0, 0, 0, 0, 0, 0, 0, 0, 43690, 0, 44727, 0, 0, 0, 0, 0, 0, 0, 0, 0, 38888, 0, 0, 0, 0, 41381, 0, 0, 30524, 0, 0, 28747, 15428],[0, 0, 29454, 0, 0, 0, 43397, 0, 0, 0, 0, 0, 0, 0, 30128, 0, 0, 0, 0, 0, 0, 42826, 0, 45163, 0, -1, 0, 7267, 0, 0, 0, 0, 0, 0, 31027, 29485, 0, 25935, 0, 32414, 27193, 0, 30588, 0, 0, 22136, 0, 26991, 0, 0, 0, 0, 0, 0, 0, 0, 0, 0, 28035, 43930, 39984, 31777, 26298, 41378, 0, 6669, 0, 0, 0, 0, 9860, 0, 39923, 0, 0, 36174, 0, 0, 0, 15200, 0, 13641, 30196, 0, 0, 0, 0, 0, 0, 0, 0, 0, 39251],[0, 45128, 0, 0, 35000, 44022, 15317, 0, 0, 0, 0, 0, 0, 30260, 0, 0, 0, 0, 0, 0, 0, 44102, 0, 0, 0, 0, -1, 0, 0, 5264, 0, 24181, 0, 42364, 0, 30116, 0, 0, 0, 0, 0, 43261, 0, 0, 0, 0, 0, 0, 0, 44603, 0, 0, 0, 0, 0, 0, 0, 0, 0, 0, 0, 0, 42671, 13993, 0, 0, 0, 0, 0, 40895, 0, 0, 0, 0, 44365, 0, 0, 34064, 0, 0, 0, 0, 24192, 0, 21679, 21764, 0, 38877, 0, 30771, 0, 0, 41011],[0, 0, 0, 0, 0, 0, 0, 41412, 0, 0, 0, 0, 19858, 0, 0, 0, 19670, 19711, 0, 33422, 40262, 0, 0, 0, 0, 7267, 0, -1, 0, 0, 38991, 0, 0, 0, 0, 25518, 0, 0, 0, 0, 7733, 0, 0, 0, 0, 46217, 0, 0, 0, 0, 0, 42527, 0, 0, 0, 25044, 0, 0, 0, 22088, 0, 18823, 0, 0, 0, 0, 0, 0, 0, 0, 0, 0, 0, 0, 25878, 25338, 0, 30087, 0, 0, 0, 0, 0, 0, 28203, 0, 39849, 15875, 0, 17433, 0, 43970, 22560],[0, 45230, 0, 0, 0, 0, 0, 42924, 43375, 0, 0, 0, 0, 0, 0, 0, 0, 0, 24423, 0, 0, 0, 0, 0, 0, 0, 0, 0, -1, 0, 24618, 42270, 0, 0, 0, 0, 0, 0, 0, 0, 23524, 0, 26880, 0, 0, 0, 0, 0, 20213, 0, 45673, 0, 0, 32489, 30099, 28853, 0, 18143, 0, 0, 26451, 0, 0, 0, 46327, 0, 33950, 0, 0, 17143, 0, 0, 0, 25131, 35066, 0, 0, 0, 0, 0, 33334, 0, 0, 0, 0, 34379, 0, 0, 0, 0, 30374, 45446, 0],[0, 0, 13592, 13377, 0, 0, 0, 0, 0, 0, 0, 0, 6215, 0, 0, 0, 0, 0, 0, 38404, 0, 0, 0, 0, 35823, 0, 5264, 0, 0, -1, 0, 0, 0, 0, 0, 0, 0, 45879, 0, 32058, 24677, 0, 32053, 0, 0, 0, 0, 0, 27927, 0, 0, 0, 41131, 0, 0, 0, 0, 0, 17481, 0, 0, 0, 0, 0, 0, 0, 0, 0, 0, 38390, 0, 0, 0, 0, 0, 0, 16521, 0, 0, 0, 17834, 25600, 0, 0, 0, 42569, 0, 0, 0, 0, 37570, 45515, 0],[0, 45897, 0, 0, 35290, 0, 0, 0, 35252, 25407, 0, 0, 0, 32112, 0, 0, 0, 0, 24884, 45285, 32740, 0, 0, 0, 0, 0, 0, 38991, 24618, 0, -1, 0, 0, 0, 19574, 22547, 0, 38054, 0, 0, 0, 40137, 0, 35402, 0, 0, 0, 0, 11817, 0, 0, 0, 0, 0, 0, 0, 36265, 45429, 33555, 0, 0, 35650, 0, 0, 0, 0, 39440, 0, 0, 0, 0, 0, 0, 37286, 0, 0, 0, 0, 0, 0, 44187, 0, 0, 31024, 0, 0, 0, 0, 0, 0, 0, 0, 0],[0, 41705, 0, 0, 0, 0, 0, 0, 0, 0, 0, 46156, 0, 42187, 0, 0, 0, 0, 12350, 0, 0, 0, 23753, 0, 35991, 0, 24181, 0, 42270, 0, 0, -1, 0, 10573, 0, 0, 0, 0, 0, 37674, 0, 0, 0, 0, 0, 0, 0, 0, 38316, 0, 0, 0, 0, 0, 0, 0, 0, 30158, 0, 35184, 0, 0, 25509, 0, 0, 11331, 0, 0, 15041, 42521, 0, 12583, 36682, 0, 0, 0, 0, 0, 0, 0, 15322, 0, 0, 0, 40725, 0, 0, 0, 0, 0, 0, 0, 0],[0, 0, 0, 0, 43128, 0, 0, 0, 0, 0, 18619, 0, 0, 0, 0, 41602, 35609, 40305, 31282, 0, 0, 11064, 0, 0, 0, 0, 0, 0, 0, 0, 0, 0, -1, 0, 0, 0, 0, 0, 0, 0, 0, 0, 0, 12806, 0, 0, 20928, 0, 0, 0, 13215, 0, 0, 0, 0, 0, 44510, 0, 39121, 0, 0, 0, 0, 0, 0, 0, 0, 42314, 0, 43136, 38779, 25490, 0, 46144, 24160, 0, 0, 31573, 0, 0, 0, 0, 0, 0, 45256, 38371, 0, 0, 10389, 42413, 0, 41122, 0],[0, 32130, 0, 0, 0, 0, 40543, 0, 0, 0, 0, 0, 0, 0, 11133, 0, 0, 0, 0, 22978, 0, 34495, 0, 42231, 0, 0, 42364, 0, 0, 0, 0, 10573, 0, -1, 38646, 0, 21365, 26713, 0, 33871, 0, 0, 0, 0, 0, 0, 0, 0, 0, 31371, 0, 0, 0, 0, 0, 0, 45095, 0, 25669, 0, 0, 14346, 0, 23901, 0, 0, 41287, 0, 11620, 40341, 0, 0, 0, 0, 44682, 0, 0, 0, 0, 0, 9782, 0, 12391, 0, 29799, 0, 18832, 0, 0, 0, 30525, 40865, 0],[0, 0, 35914, 0, 0, 36903, 22224, 0, 0, 0, 24583, 38369, 14371, 0, 0, 0, 0, 0, 0, 0, 0, 0, 0, 0, 0, 31027, 0, 0, 0, 0, 19574, 0, 0, 38646, -1, 0, 42852, 42909, 0, 0, 0, 33423, 0, 42555, 44015, 0, 0, 0, 0, 0, 0, 25573, 0, 0, 0, 0, 0, 30523, 0, 0, 38915, 16795, 40883, 32103, 17740, 0, 0, 0, 0, 0, 0, 28869, 0, 0, 0, 0, 0, 34420, 0, 0, 0, 32855, 0, 43480, 0, 0, 0, 0, 0, 24974, 0, 0, 0],[31616, 37982, 0, 32413, 0, 27244, 0, 0, 28341, 0, 45822, 0, 0, 13099, 0, 0, 37378, 0, 23011, 0, 44168, 0, 41047, 46021, 0, 29485, 30116, 25518, 0, 0, 22547, 0, 0, 0, 0, -1, 17291, 0, 0, 14097, 39306, 0, 0, 0, 46026, 0, 0, 20624, 0, 43417, 0, 0, 0, 0, 0, 0, 9065, 0, 0, 0, 0, 0, 0, 43952, 0, 24299, 0, 13955, 29460, 0, 0, 0, 0, 0, 0, 0, 0, 0, 29007, 0, 0, 0, 37312, 0, 0, 0, 0, 0, 0, 0, 11195, 0, 0],[0, 0, 43694, 0, 32631, 28189, 26087, 0, 0, 0, 0, 0, 31975, 0, 0, 28816, 0, 0, 0, 40234, 27833, 0, 0, 43888, 0, 0, 0, 0, 0, 0, 0, 0, 0, 21365, 42852, 17291, -1, 0, 0, 0, 37573, 0, 0, 0, 0, 0, 0, 36413, 0, 0, 38584, 0, 28856, 0, 0, 0, 11572, 34858, 29253, 0, 0, 0, 42153, 7121, 38059, 0, 0, 0, 0, 0, 18436, 36064, 15110, 36589, 27626, 0, 0, 13941, 0, 22999, 18710, 17966, 0, 0, 0, 0, 0, 0, 0, 0, 0, 0, 44510],[0, 0, 20480, 0, 0, 0, 0, 0, 43003, 0, 0, 0, 28436, 0, 0, 26249, 0, 0, 0, 0, 0, 0, 0, 0, 0, 25935, 0, 0, 0, 45879, 38054, 0, 0, 26713, 42909, 0, 0, -1, 0, 0, 0, 0, 0, 0, 0, 0, 0, 0, 0, 22077, 0, 0, 0, 0, 0, 0, 39999, 34413, 0, 18282, 45980, 44415, 0, 0, 0, 23507, 0, 0, 0, 0, 0, 24067, 0, 0, 0, 13536, 0, 0, 0, 0, 0, 43915, 0, 0, 39044, 0, 39978, 0, 0, 0, 0, 0, 0],[0, 42761, 33234, 0, 0, 0, 44540, 0, 42289, 0, 0, 0, 45144, 0, 0, 0, 24746, 17577, 0, 39165, 13079, 0, 0, 0, 0, 0, 0, 0, 0, 0, 0, 0, 0, 0, 0, 0, 0, 0, -1, 0, 45005, 28698, 0, 0, 0, 0, 0, 31216, 0, 0, 0, 0, 0, 0, 0, 31166, 0, 0, 0, 0, 0, 44809, 0, 0, 0, 0, 0, 0, 0, 0, 30197, 0, 0, 0, 0, 12595, 37728, 36160, 0, 20873, 0, 35337, 0, 0, 34229, 27270, 0, 0, 0, 0, 0, 38685, 9342],[0, 0, 0, 0, 31285, 0, 0, 0, 0, 0, 0, 0, 18111, 0, 0, 0, 0, 0, 0, 0, 0, 35212, 0, 28899, 0, 32414, 0, 0, 0, 32058, 0, 37674, 0, 33871, 0, 14097, 0, 0, 0, -1, 0, 29404, 25858, 0, 0, 33902, 0, 0, 0, 0, 11572, 0, 21247, 0, 34138, 40281, 0, 0, 0, 0, 0, 33179, 0, 45992, 0, 0, 0, 0, 45163, 0, 0, 0, 12700, 0, 14416, 0, 0, 28605, 0, 0, 35752, 0, 0, 0, 0, 0, 0, 26465, 0, 0, 0, 0, 0],[0, 0, 30390, 0, 0, 0, 0, 0, 42157, 0, 41326, 0, 0, 0, 0, 0, 0, 0, 44846, 0, 0, 22302, 0, 0, 32635, 27193, 0, 7733, 23524, 24677, 0, 0, 0, 0, 0, 39306, 37573, 0, 45005, 0, -1, 0, 0, 0, 0, 0, 0, 45046, 0, 0, 0, 0, 0, 0, 0, 30381, 31965, 0, 0, 0, 0, 0, 0, 0, 0, 0, 29463, 0, 43665, 0, 0, 0, 0, 38081, 0, 0, 0, 0, 0, 0, 0, 0, 0, 0, 0, 0, 0, 27394, 0, 0, 0, 0, 20943],[9383, 33878, 0, 44134, 0, 22921, 0, 0, 38558, 0, 0, 0, 0, 0, 24891, 0, 0, 0, 28397, 0, 33526, 0, 0, 27948, 0, 0, 43261, 0, 0, 0, 40137, 0, 0, 0, 33423, 0, 0, 0, 28698, 29404, 0, -1, 0, 0, 0, 24488, 0, 0, 18311, 0, 0, 0, 20257, 0, 0, 0, 0, 38527, 0, 0, 30390, 35644, 45099, 36916, 0, 0, 0, 43468, 0, 0, 0, 19363, 0, 0, 33152, 0, 0, 0, 0, 0, 0, 44308, 21020, 0, 0, 0, 0, 0, 0, 0, 0, 0, 0],[8271, 0, 0, 0, 0, 0, 41132, 15132, 0, 0, 21590, 0, 0, 0, 0, 0, 0, 0, 11113, 0, 35198, 0, 0, 0, 0, 30588, 0, 0, 26880, 32053, 0, 0, 0, 0, 0, 0, 0, 0, 0, 25858, 0, 0, -1, 8310, 0, 0, 0, 0, 0, 0, 26727, 39805, 22713, 44931, 39214, 27851, 0, 0, 0, 0, 0, 0, 33345, 0, 0, 0, 27479, 0, 0, 7088, 0, 0, 0, 0, 0, 0, 0, 46181, 0, 33040, 0, 0, 0, 0, 38599, 0, 0, 0, 35580, 0, 0, 0, 0],[0, 37732, 23649, 0, 0, 0, 0, 0, 0, 0, 0, 0, 0, 0, 0, 30509, 0, 0, 0, 0, 0, 0, 0, 0, 0, 0, 0, 0, 0, 0, 35402, 0, 12806, 0, 42555, 0, 0, 0, 0, 0, 0, 0, 8310, -1, 0, 27910, 0, 41485, 0, 0, 42060, 34925, 43477, 39782, 0, 0, 38150, 0, 0, 7317, 31119, 0, 0, 0, 0, 0, 0, 0, 0, 0, 0, 0, 0, 0, 0, 0, 0, 0, 6269, 0, 0, 40357, 0, 42093, 0, 0, 0, 29804, 37300, 0, 0, 0, 25292],[0, 37615, 0, 0, 0, 0, 15273, 33279, 33897, 28833, 0, 0, 0, 0, 0, 0, 0, 0, 0, 0, 0, 0, 18619, 0, 0, 0, 0, 0, 0, 0, 0, 0, 0, 0, 44015, 46026, 0, 0, 0, 0, 0, 0, 0, 0, -1, 30704, 28263, 43560, 0, 0, 0, 0, 0, 38439, 0, 24219, 12556, 0, 0, 0, 0, 0, 38904, 0, 21140, 40153, 0, 0, 0, 0, 0, 19313, 32672, 0, 0, 0, 0, 0, 29424, 0, 0, 43453, 0, 30375, 43678, 0, 12946, 0, 0, 0, 0, 11789, 0],[18341, 0, 0, 0, 0, 0, 0, 0, 0, 0, 0, 0, 0, 0, 0, 0, 0, 0, 0, 0, 0, 0, 0, 0, 0, 22136, 0, 46217, 0, 0, 0, 0, 0, 0, 0, 0, 0, 0, 0, 33902, 0, 24488, 0, 27910, 30704, -1, 40922, 0, 0, 0, 8640, 0, 0, 0, 0, 40006, 0, 0, 0, 10396, 0, 0, 0, 0, 0, 0, 0, 40441, 0, 0, 0, 0, 29994, 45053, 0, 44792, 0, 0, 0, 33795, 7445, 38362, 0, 31826, 0, 43057, 0, 0, 0, 0, 0, 37549, 0],[0, 0, 34784, 0, 0, 0, 15768, 0, 0, 0, 32184, 0, 18121, 0, 0, 27085, 0, 0, 0, 0, 0, 0, 0, 0, 0, 0, 0, 0, 0, 0, 0, 0, 20928, 0, 0, 0, 0, 0, 0, 0, 0, 0, 0, 0, 28263, 40922, -1, 46129, 0, 22461, 0, 0, 0, 0, 0, 0, 0, 0, 0, 0, 27344, 0, 0, 33661, 31785, 45828, 44019, 0, 35972, 0, 44740, 41745, 0, 0, 0, 0, 0, 0, 0, 0, 41464, 0, 0, 0, 0, 0, 0, 0, 0, 0, 0, 0, 32667],[41377, 0, 0, 0, 0, 35871, 0, 0, 0, 0, 0, 44565, 43020, 38067, 0, 10252, 0, 37696, 0, 0, 0, 0, 0, 0, 0, 26991, 0, 0, 0, 0, 0, 0, 0, 0, 0, 20624, 36413, 0, 31216, 0, 45046, 0, 0, 41485, 43560, 0, 46129, -1, 0, 0, 27776, 0, 14489, 17841, 0, 0, 0, 0, 28716, 0, 0, 0, 0, 0, 0, 0, 37614, 0, 0, 0, 0, 0, 0, 0, 0, 0, 0, 0, 0, 0, 0, 44709, 0, 40342, 32928, 0, 0, 0, 0, 0, 6685, 0, 25539],[0, 0, 0, 34375, 0, 0, 0, 0, 44922, 0, 0, 0, 0, 0, 0, 29436, 0, 0, 0, 24519, 0, 41283, 24131, 10037, 0, 0, 0, 0, 20213, 27927, 11817, 38316, 0, 0, 0, 0, 0, 0, 0, 0, 0, 18311, 0, 0, 0, 0, 0, 0, -1, 0, 0, 0, 0, 20699, 0, 0, 0, 0, 0, 0, 39020, 17597, 0, 0, 0, 0, 43840, 0, 0, 0, 0, 0, 0, 0, 0, 0, 0, 0, 36657, 0, 0, 9947, 0, 0, 0, 0, 0, 0, 25011, 0, 0, 0, 0],[43986, 0, 0, 0, 0, 29477, 0, 0, 29366, 0, 0, 0, 0, 21940, 0, 0, 0, 23124, 33734, 0, 0, 0, 3563, 28332, 18305, 0, 44603, 0, 0, 0, 0, 0, 0, 31371, 0, 43417, 0, 22077, 0, 0, 0, 0, 0, 0, 0, 0, 22461, 0, 0, -1, 0, 0, 40624, 35504, 0, 0, 0, 0, 45673, 0, 0, 42603, 43902, 0, 0, 34401, 0, 0, 0, 0, 0, 44315, 12762, 0, 0, 0, 0, 0, 0, 0, 42764, 0, 0, 0, 0, 21419, 0, 0, 0, 0, 0, 0, 0],[0, 0, 37321, 0, 29899, 0, 0, 0, 0, 0, 0, 0, 0, 0, 0, 0, 0, 43547, 25201, 0, 0, 31780, 27327, 0, 42300, 0, 0, 0, 45673, 0, 0, 0, 13215, 0, 0, 0, 38584, 0, 0, 11572, 0, 0, 26727, 42060, 0, 8640, 0, 27776, 0, 0, -1, 0, 0, 0, 0, 0, 42615, 40223, 0, 0, 0, 43460, 16723, 0, 0, 0, 7926, 0, 0, 0, 0, 0, 0, 0, 0, 0, 0, 45581, 0, 0, 38243, 0, 0, 37648, 0, 0, 0, 0, 35479, 0, 0, 0, 36233],[0, 0, 0, 0, 20503, 0, 0, 0, 0, 33213, 0, 0, 46166, 0, 0, 0, 0, 0, 42496, 0, 42173, 0, 23304, 0, 0, 0, 0, 42527, 0, 0, 0, 0, 0, 0, 25573, 0, 0, 0, 0, 0, 0, 0, 39805, 34925, 0, 0, 0, 0, 0, 0, 0, -1, 0, 0, 31143, 0, 32848, 10691, 36580, 0, 14622, 0, 25071, 0, 0, 31786, 0, 0, 32401, 0, 0, 0, 0, 0, 28599, 0, 0, 0, 0, 0, 0, 22115, 27529, 0, 0, 16504, 0, 2237, 0, 44688, 0, 39841, 0],[44829, 0, 0, 40415, 0, 0, 0, 0, 0, 38546, 0, 0, 0, 0, 43106, 20245, 0, 39278, 0, 0, 40088, 0, 30926, 0, 0, 0, 0, 0, 0, 41131, 0, 0, 0, 0, 0, 0, 28856, 0, 0, 21247, 0, 20257, 22713, 43477, 0, 0, 0, 14489, 0, 40624, 0, 0, -1, 0, 23328, 0, 0, 26464, 18050, 0, 14284, 45859, 0, 0, 37298, 40997, 0, 0, 0, 0, 0, 41196, 38946, 0, 0, 0, 0, 40245, 0, 0, 0, 45399, 0, 0, 0, 0, 0, 0, 0, 0, 27741, 0, 0],[33036, 0, 45013, 0, 0, 0, 0, 0, 0, 0, 38398, 0, 46140, 0, 10130, 0, 0, 38459, 0, 0, 0, 33595, 0, 0, 0, 0, 0, 0, 32489, 0, 0, 0, 0, 0, 0, 0, 0, 0, 0, 0, 0, 0, 44931, 39782, 38439, 0, 0, 17841, 20699, 35504, 0, 0, 0, -1, 0, 0, 0, 0, 22086, 0, 0, 0, 0, 0, 0, 0, 0, 0, 0, 0, 0, 45765, 0, 0, 0, 0, 0, 0, 0, 22717, 0, 0, 0, 0, 0, 0, 39374, 0, 44092, 0, 0, 25239, 0],[35392, 0, 0, 0, 0, 0, 0, 0, 25368, 0, 0, 21211, 0, 0, 0, 0, 0, 0, 0, 0, 38180, 44366, 0, 0, 44320, 0, 0, 0, 30099, 0, 0, 0, 0, 0, 0, 0, 0, 0, 0, 34138, 0, 0, 39214, 0, 0, 0, 0, 0, 0, 0, 0, 31143, 23328, 0, -1, 0, 0, 0, 0, 0, 41054, 0, 0, 3088, 0, 0, 0, 0, 0, 0, 18309, 0, 0, 41233, 0, 0, 0, 0, 0, 38547, 0, 0, 43348, 0, 0, 0, 40646, 0, 30413, 0, 0, 42049, 0],[0, 0, 30817, 0, 0, 0, 0, 0, 0, 0, 0, 0, 0, 0, 0, 0, 0, 0, 41039, 0, 0, 0, 0, 13816, 0, 0, 0, 25044, 28853, 0, 0, 0, 0, 0, 0, 0, 0, 0, 31166, 40281, 30381, 0, 27851, 0, 24219, 40006, 0, 0, 0, 0, 0, 0, 0, 0, 0, -1, 0, 31122, 0, 0, 0, 0, 0, 0, 0, 0, 40151, 0, 0, 0, 0, 0, 34421, 0, 0, 0, 0, 0, 0, 0, 0, 0, 0, 32176, 0, 0, 0, 0, 0, 43793, 0, 32814, 0],[0, 0, 0, 0, 0, 0, 0, 0, 0, 46105, 33303, 0, 0, 29446, 0, 27941, 0, 0, 18882, 45358, 13906, 36327, 32032, 0, 25870, 0, 0, 0, 0, 0, 36265, 0, 44510, 45095, 0, 9065, 11572, 39999, 0, 0, 31965, 0, 0, 38150, 12556, 0, 0, 0, 0, 0, 42615, 32848, 0, 0, 0, 0, -1, 0, 11903, 0, 0, 0, 0, 17701, 18394, 0, 0, 0, 4123, 9778, 19380, 0, 0, 0, 0, 0, 0, 42370, 0, 43790, 0, 0, 0, 33927, 36291, 45878, 0, 44743, 0, 0, 42721, 0, 0],[0, 32353, 0, 0, 0, 9056, 0, 0, 0, 41732, 39472, 0, 38923, 0, 0, 0, 0, 45011, 23165, 0, 44512, 0, 35704, 10984, 34127, 0, 0, 0, 18143, 0, 45429, 30158, 0, 0, 30523, 0, 34858, 34413, 0, 0, 0, 38527, 0, 0, 0, 0, 0, 0, 0, 0, 40223, 10691, 26464, 0, 0, 31122, 0, -1, 5015, 0, 0, 36763, 44188, 0, 0, 0, 0, 0, 26506, 0, 0, 0, 23025, 0, 27209, 12929, 30199, 0, 0, 0, 37406, 0, 0, 0, 0, 0, 0, 0, 0, 25763, 0, 0, 42829],[0, 0, 8575, 0, 0, 39802, 0, 0, 38606, 23689, 0, 0, 0, 0, 0, 0, 35717, 0, 0, 0, 0, 42647, 0, 0, 44649, 28035, 0, 0, 0, 17481, 33555, 0, 39121, 25669, 0, 0, 29253, 0, 0, 0, 0, 0, 0, 0, 0, 0, 0, 28716, 0, 45673, 0, 36580, 18050, 22086, 0, 0, 11903, 5015, -1, 0, 41254, 0, 11447, 0, 0, 0, 0, 0, 28452, 0, 0, 0, 0, 0, 0, 0, 0, 25138, 0, 0, 41906, 22664, 0, 0, 44956, 0, 0, 0, 0, 0, 0, 38693, 0],[0, 19920, 0, 0, 21023, 32274, 33527, 43117, 0, 0, 0, 26750, 36158, 0, 0, 0, 0, 0, 0, 45614, 27154, 0, 0, 0, 0, 43930, 0, 22088, 0, 0, 0, 35184, 0, 0, 0, 0, 0, 18282, 0, 0, 0, 0, 0, 7317, 0, 10396, 0, 0, 0, 0, 0, 0, 0, 0, 0, 0, 0, 0, 0, -1, 0, 10487, 0, 33580, 38790, 0, 40947, 0, 0, 0, 35330, 34169, 0, 0, 0, 0, 0, 38906, 0, 0, 34618, 24603, 28680, 0, 25774, 0, 0, 0, 0, 0, 0, 37543, 0],[31768, 0, 25555, 0, 0, 0, 0, 0, 0, 0, 0, 0, 0, 15817, 26994, 0, 24090, 0, 0, 0, 0, 0, 0, 22764, 0, 39984, 0, 0, 26451, 0, 0, 0, 0, 0, 38915, 0, 0, 45980, 0, 0, 0, 30390, 0, 31119, 0, 0, 27344, 0, 39020, 0, 0, 14622, 14284, 0, 41054, 0, 0, 0, 41254, 0, -1, 0, 0, 20245, 0, 0, 40845, 0, 40585, 0, 0, 0, 23403, 0, 0, 0, 0, 12802, 0, 44423, 0, 0, 0, 39456, 20232, 16189, 0, 43095, 13944, 40549, 0, 30375, 0],[0, 0, 0, 0, 0, 0, 0, 0, 0, 0, 0, 0, 0, 38988, 42272, 0, 37091, 0, 22480, 0, 0, 0, 0, 0, 0, 31777, 0, 18823, 0, 0, 35650, 0, 0, 14346, 16795, 0, 0, 44415, 44809, 33179, 0, 35644, 0, 0, 0, 0, 0, 0, 17597, 42603, 43460, 0, 45859, 0, 0, 0, 0, 36763, 0, 10487, 0, -1, 0, 0, 0, 0, 0, 0, 0, 0, 0, 0, 0, 20701, 25510, 19990, 0, 43527, 26839, 0, 26793, 0, 0, 0, 0, 10043, 0, 0, 0, 0, 0, 29668, 0],[0, 0, 0, 28103, 0, 43701, 0, 0, 0, 0, 34892, 0, 0, 39559, 0, 0, 0, 0, 0, 40150, 0, 0, 0, 43611, 0, 26298, 42671, 0, 0, 0, 0, 25509, 0, 0, 40883, 0, 42153, 0, 0, 0, 0, 45099, 33345, 0, 38904, 0, 0, 0, 0, 43902, 16723, 25071, 0, 0, 0, 0, 0, 44188, 11447, 0, 0, 0, -1, 0, 0, 0, 21249, 0, 42641, 0, 0, 0, 0, 0, 0, 31249, 0, 0, 31703, 0, 44561, 40697, 0, 0, 0, 0, 0, 0, 37043, 0, 0, 0, 0],[0, 42805, 0, 0, 0, 0, 0, 0, 0, 0, 0, 0, 0, 0, 0, 36581, 37591, 0, 0, 0, 0, 9770, 0, 0, 0, 41378, 13993, 0, 0, 0, 0, 0, 0, 23901, 32103, 43952, 7121, 0, 0, 45992, 0, 36916, 0, 0, 0, 0, 33661, 0, 0, 0, 0, 0, 0, 0, 3088, 0, 17701, 0, 0, 33580, 20245, 0, 0, -1, 22742, 0, 0, 4348, 38396, 40800, 0, 0, 0, 0, 0, 0, 38866, 40404, 0, 0, 0, 0, 0, 0, 0, 33654, 33074, 0, 0, 0, 0, 0, 0],[34376, 0, 0, 38347, 0, 0, 0, 0, 0, 0, 0, 0, 33580, 0, 0, 0, 0, 0, 11243, 0, 22442, 32024, 0, 16101, 0, 0, 0, 0, 46327, 0, 0, 0, 0, 0, 17740, 0, 38059, 0, 0, 0, 0, 0, 0, 0, 21140, 0, 31785, 0, 0, 0, 0, 0, 37298, 0, 0, 0, 18394, 0, 0, 38790, 0, 0, 0, 22742, -1, 0, 0, 0, 0, 30646, 0, 0, 0, 0, 0, 0, 0, 24103, 0, 0, 0, 21235, 39412, 0, 0, 0, 0, 0, 0, 31413, 32771, 45856, 0],[0, 20800, 0, 0, 0, 0, 0, 0, 27483, 0, 23470, 35937, 0, 0, 0, 41809, 0, 0, 0, 0, 0, 0, 0, 15521, 0, 6669, 0, 0, 0, 0, 0, 11331, 0, 0, 0, 24299, 0, 23507, 0, 0, 0, 0, 0, 0, 40153, 0, 45828, 0, 0, 34401, 0, 31786, 40997, 0, 0, 0, 0, 0, 0, 0, 0, 0, 0, 0, 0, -1, 45882, 32713, 0, 0, 0, 29678, 0, 0, 33952, 0, 0, 0, 0, 0, 0, 0, 0, 0, 0, 0, 0, 0, 0, 41967, 33447, 0, 0],[0, 6059, 37204, 32051, 0, 0, 0, 0, 6386, 0, 0, 0, 0, 0, 25546, 43380, 0, 0, 0, 0, 0, 0, 13075, 0, 0, 0, 0, 0, 33950, 0, 39440, 0, 0, 41287, 0, 0, 0, 0, 0, 0, 29463, 0, 27479, 0, 0, 0, 44019, 37614, 43840, 0, 7926, 0, 0, 0, 0, 40151, 0, 0, 0, 40947, 40845, 0, 21249, 0, 0, 45882, -1, 0, 0, 0, 44862, 0, 0, 0, 38997, 0, 0, 0, 0, 0, 13877, 28057, 43125, 0, 38918, 0, 0, 44426, 0, 0, 0, 0, 0],[38929, 0, 0, 0, 0, 36243, 0, 0, 0, 0, 0, 30895, 0, 0, 0, 33892, 0, 0, 0, 45142, 0, 0, 0, 20659, 0, 0, 0, 0, 0, 0, 0, 0, 42314, 0, 0, 13955, 0, 0, 0, 0, 0, 43468, 0, 0, 0, 40441, 0, 0, 0, 0, 0, 0, 0, 0, 0, 0, 0, 0, 0, 0, 0, 0, 0, 4348, 0, 32713, 0, -1, 0, 0, 0, 32415, 36970, 0, 37804, 35335, 37910, 0, 0, 0, 0, 0, 0, 0, 45372, 0, 32292, 0, 0, 0, 0, 31430, 34261],[0, 0, 0, 0, 30758, 0, 0, 18304, 0, 12690, 0, 34471, 0, 0, 0, 36850, 0, 0, 0, 30560, 0, 0, 22003, 0, 43690, 0, 0, 0, 0, 0, 0, 15041, 0, 11620, 0, 29460, 0, 0, 0, 45163, 43665, 0, 0, 0, 0, 0, 35972, 0, 0, 0, 0, 32401, 0, 0, 0, 0, 4123, 26506, 28452, 0, 40585, 0, 42641, 38396, 0, 0, 0, 0, -1, 0, 0, 33896, 0, 0, 0, 0, 0, 0, 0, 0, 0, 42147, 3929, 0, 0, 0, 0, 17152, 20752, 0, 0, 43843, 0],[0, 0, 0, 39213, 43791, 0, 0, 0, 0, 0, 0, 0, 45959, 0, 37919, 0, 33796, 0, 0, 0, 0, 0, 0, 0, 0, 0, 40895, 0, 17143, 38390, 0, 42521, 43136, 40341, 0, 0, 0, 0, 0, 0, 0, 0, 7088, 0, 0, 0, 0, 0, 0, 0, 0, 0, 0, 0, 0, 0, 9778, 0, 0, 0, 0, 0, 0, 40800, 30646, 0, 0, 0, 0, -1, 0, 0, 0, 0, 0, 0, 0, 0, 16945, 0, 0, 0, 0, 29599, 0, 0, 0, 0, 0, 0, 0, 0, 24484],[0, 0, 0, 36213, 0, 0, 0, 0, 40086, 36117, 40108, 0, 0, 35387, 41169, 0, 0, 0, 41474, 32695, 43697, 26344, 0, 21439, 44727, 9860, 0, 0, 0, 0, 0, 0, 38779, 0, 0, 0, 18436, 0, 30197, 0, 0, 0, 0, 0, 0, 0, 44740, 0, 0, 0, 0, 0, 0, 0, 18309, 0, 19380, 0, 0, 35330, 0, 0, 0, 0, 0, 0, 44862, 0, 0, 0, -1, 0, 0, 0, 0, 43823, 0, 28946, 43981, 0, 0, 0, 0, 0, 0, 0, 5946, 0, 0, 31115, 32968, 0, 14895],[0, 0, 33341, 0, 0, 0, 0, 0, 0, 0, 37045, 0, 0, 32006, 43655, 0, 0, 0, 24746, 0, 0, 0, 0, 0, 0, 0, 0, 0, 0, 0, 0, 12583, 25490, 0, 28869, 0, 36064, 24067, 0, 0, 0, 19363, 0, 0, 19313, 0, 41745, 0, 0, 44315, 0, 0, 41196, 45765, 0, 0, 0, 0, 0, 34169, 0, 0, 0, 0, 0, 29678, 0, 32415, 33896, 0, 0, -1, 0, 0, 0, 0, 23319, 0, 0, 0, 0, 0, 0, 0, 0, 0, 35875, 0, 0, 0, 0, 0, 0],[0, 0, 0, 7498, 0, 0, 0, 0, 0, 44185, 0, 0, 39770, 0, 0, 0, 40846, 28857, 0, 0, 0, 45135, 0, 0, 0, 39923, 0, 0, 0, 0, 0, 36682, 0, 0, 0, 0, 15110, 0, 0, 12700, 0, 0, 0, 0, 32672, 29994, 0, 0, 0, 12762, 0, 0, 38946, 0, 0, 34421, 0, 23025, 0, 0, 23403, 0, 0, 0, 0, 0, 0, 36970, 0, 0, 0, 0, -1, 0, 0, 0, 0, 0, 0, 0, 0, 24946, 0, 40315, 0, 0, 0, 24733, 0, 0, 0, 0, 0],[0, 30264, 0, 0, 0, 0, 0, 0, 0, 0, 38240, 5327, 0, 0, 39490, 17138, 0, 36321, 41055, 23504, 44000, 0, 0, 0, 0, 0, 0, 0, 25131, 0, 37286, 0, 46144, 0, 0, 0, 36589, 0, 0, 0, 38081, 0, 0, 0, 0, 45053, 0, 0, 0, 0, 0, 0, 0, 0, 41233, 0, 0, 0, 0, 0, 0, 20701, 0, 0, 0, 0, 0, 0, 0, 0, 0, 0, 0, -1, 0, 0, 0, 0, 17692, 0, 0, 0, 0, 24819, 0, 16688, 0, 0, 0, 0, 0, 0, 0],[0, 0, 0, 0, 0, 0, 42113, 0, 0, 0, 0, 0, 0, 0, 10375, 0, 0, 0, 42492, 32579, 42929, 39828, 39518, 0, 0, 0, 44365, 25878, 35066, 0, 0, 0, 24160, 44682, 0, 0, 27626, 0, 0, 14416, 0, 33152, 0, 0, 0, 0, 0, 0, 0, 0, 0, 28599, 0, 0, 0, 0, 0, 27209, 0, 0, 0, 25510, 0, 0, 0, 33952, 38997, 37804, 0, 0, 0, 0, 0, 0, -1, 33782, 41033, 0, 0, 0, 43299, 0, 0, 0, 0, 37322, 0, 0, 0, 0, 0, 0, 0],[0, 36627, 19637, 0, 0, 39577, 0, 0, 0, 45170, 0, 0, 41844, 27415, 0, 25525, 0, 0, 26272, 0, 0, 0, 0, 0, 0, 36174, 0, 25338, 0, 0, 0, 0, 0, 0, 0, 0, 0, 13536, 12595, 0, 0, 0, 0, 0, 0, 44792, 0, 0, 0, 0, 0, 0, 0, 0, 0, 0, 0, 12929, 0, 0, 0, 19990, 31249, 0, 0, 0, 0, 35335, 0, 0, 43823, 0, 0, 0, 33782, -1, 37290, 0, 0, 0, 0, 0, 0, 0, 0, 0, 0, 0, 0, 0, 0, 0, 39316],[0, 0, 0, 0, 0, 0, 0, 32368, 0, 0, 0, 0, 0, 0, 5104, 0, 0, 0, 0, 0, 0, 0, 0, 0, 0, 0, 0, 0, 0, 16521, 0, 0, 0, 0, 0, 0, 0, 0, 37728, 0, 0, 0, 0, 0, 0, 0, 0, 0, 0, 0, 0, 0, 0, 0, 0, 0, 0, 30199, 0, 0, 0, 0, 0, 38866, 0, 0, 0, 37910, 0, 0, 0, 23319, 0, 0, 41033, 37290, -1, 0, 0, 0, 0, 0, 0, 0, 0, 0, 26426, 0, 0, 0, 29153, 0, 0],[0, 0, 0, 0, 0, 0, 0, 38132, 0, 0, 0, 0, 7757, 23458, 0, 41267, 0, 0, 0, 0, 29315, 35175, 19777, 0, 0, 0, 34064, 30087, 0, 0, 0, 0, 31573, 0, 34420, 0, 13941, 0, 36160, 28605, 0, 0, 46181, 0, 0, 0, 0, 0, 0, 0, 45581, 0, 40245, 0, 0, 0, 42370, 0, 25138, 38906, 12802, 43527, 0, 40404, 24103, 0, 0, 0, 0, 0, 28946, 0, 0, 0, 0, 0, 0, -1, 0, 24014, 0, 17959, 0, 35597, 0, 0, 0, 0, 0, 0, 0, 0, 44394],[0, 0, 0, 26183, 32802, 0, 23693, 0, 0, 41967, 0, 0, 37520, 38018, 0, 0, 44656, 0, 0, 40192, 0, 0, 41120, 0, 0, 0, 0, 0, 0, 0, 0, 0, 0, 0, 0, 29007, 0, 0, 0, 0, 0, 0, 0, 6269, 29424, 0, 0, 0, 36657, 0, 0, 0, 0, 0, 0, 0, 0, 0, 0, 0, 0, 26839, 31703, 0, 0, 0, 0, 0, 0, 16945, 43981, 0, 0, 17692, 0, 0, 0, 0, -1, 4506, 0, 30027, 43784, 39986, 0, 40424, 0, 0, 0, 0, 31204, 0, 0],[0, 39292, 0, 0, 0, 44170, 0, 0, 0, 0, 0, 0, 0, 0, 0, 0, 0, 0, 0, 0, 0, 0, 0, 41677, 0, 15200, 0, 0, 0, 0, 0, 0, 0, 0, 0, 0, 22999, 0, 20873, 0, 0, 0, 33040, 0, 0, 33795, 0, 0, 0, 0, 0, 0, 0, 22717, 38547, 0, 43790, 0, 0, 0, 44423, 0, 0, 0, 0, 0, 0, 0, 0, 0, 0, 0, 0, 0, 0, 0, 0, 24014, 4506, -1, 18421, 0, 0, 0, 40386, 43246, 35163, 0, 0, 0, 0, 42580, 27617],[5562, 0, 0, 13312, 0, 0, 0, 42599, 0, 0, 0, 0, 11500, 0, 0, 0, 0, 0, 0, 0, 0, 42977, 0, 0, 38888, 0, 0, 0, 33334, 17834, 44187, 15322, 0, 9782, 0, 0, 18710, 0, 0, 35752, 0, 0, 0, 0, 0, 7445, 41464, 0, 0, 42764, 38243, 0, 0, 0, 0, 0, 0, 37406, 41906, 34618, 0, 26793, 44561, 0, 0, 0, 13877, 0, 0, 0, 0, 0, 0, 0, 43299, 0, 0, 0, 0, 18421, -1, 37294, 0, 0, 0, 23361, 30652, 0, 0, 0, 33448, 31254, 0],[25968, 38032, 21058, 0, 0, 23210, 0, 0, 0, 0, 17640, 0, 0, 0, 0, 0, 0, 0, 0, 41642, 0, 0, 0, 7540, 0, 13641, 0, 0, 0, 25600, 0, 0, 0, 0, 32855, 0, 17966, 43915, 35337, 0, 0, 44308, 0, 40357, 43453, 38362, 0, 44709, 9947, 0, 0, 22115, 45399, 0, 0, 0, 0, 0, 22664, 24603, 0, 0, 40697, 0, 21235, 0, 28057, 0, 42147, 0, 0, 0, 24946, 0, 0, 0, 0, 17959, 30027, 0, 37294, -1, 25684, 0, 0, 0, 28581, 0, 0, 0, 43669, 0, 0],[30918, 9895, 17943, 0, 0, 0, 0, 42751, 16906, 0, 0, 0, 27116, 17293, 0, 0, 0, 0, 0, 0, 0, 0, 0, 26196, 0, 30196, 24192, 0, 0, 0, 0, 0, 0, 12391, 0, 37312, 0, 0, 0, 0, 0, 21020, 0, 0, 0, 0, 0, 0, 0, 0, 0, 27529, 0, 0, 43348, 0, 0, 0, 0, 28680, 0, 0, 0, 0, 39412, 0, 43125, 0, 3929, 0, 0, 0, 0, 0, 0, 0, 0, 0, 43784, 0, 0, 25684, -1, 23162, 0, 32614, 0, 0, 0, 0, 0, 0, 0],[0, 44254, 0, 0, 7993, 0, 0, 37542, 0, 0, 30011, 0, 0, 0, 0, 0, 0, 0, 0, 46020, 0, 0, 0, 0, 0, 0, 0, 0, 0, 0, 31024, 0, 0, 0, 43480, 0, 0, 0, 0, 0, 0, 0, 0, 42093, 30375, 31826, 0, 40342, 0, 0, 37648, 0, 0, 0, 0, 32176, 33927, 0, 0, 0, 39456, 0, 0, 0, 0, 0, 0, 0, 0, 29599, 0, 0, 40315, 24819, 0, 0, 0, 35597, 39986, 0, 0, 0, 23162, -1, 0, 0, 0, 0, 24434, 0, 0, 0, 0],[0, 0, 46155, 0, 0, 25623, 0, 33636, 0, 0, 31369, 0, 0, 44783, 0, 0, 0, 0, 0, 32605, 0, 0, 0, 0, 0, 0, 21679, 28203, 0, 0, 0, 40725, 45256, 29799, 0, 0, 0, 39044, 34229, 0, 0, 0, 38599, 0, 43678, 0, 0, 32928, 0, 0, 0, 0, 0, 0, 0, 0, 36291, 0, 44956, 25774, 20232, 0, 0, 0, 0, 0, 38918, 45372, 0, 0, 0, 0, 0, 0, 0, 0, 0, 0, 0, 40386, 0, 0, 0, 0, -1, 0, 0, 0, 0, 0, 0, 0, 0],[0, 0, 0, 42465, 13663, 38578, 17699, 0, 0, 0, 6722, 0, 0, 0, 0, 14695, 31074, 0, 6139, 18642, 41273, 0, 0, 0, 41381, 0, 21764, 0, 34379, 42569, 0, 0, 38371, 0, 0, 0, 0, 0, 27270, 0, 0, 0, 0, 0, 0, 43057, 0, 0, 0, 21419, 0, 16504, 0, 0, 0, 0, 45878, 0, 0, 0, 16189, 10043, 0, 33654, 0, 0, 0, 0, 0, 0, 0, 0, 0, 16688, 37322, 0, 0, 0, 40424, 43246, 23361, 0, 32614, 0, 0, -1, 0, 0, 0, 0, 0, 0, 0],[0, 0, 21844, 40477, 0, 0, 0, 0, 0, 45395, 0, 0, 0, 0, 0, 0, 0, 38861, 0, 43034, 8783, 0, 0, 0, 0, 0, 0, 39849, 0, 0, 0, 0, 0, 18832, 0, 0, 0, 39978, 0, 0, 0, 0, 0, 0, 12946, 0, 0, 0, 0, 0, 0, 0, 0, 39374, 40646, 0, 0, 0, 0, 0, 0, 0, 0, 33074, 0, 0, 0, 32292, 0, 0, 5946, 35875, 0, 0, 0, 0, 26426, 0, 0, 35163, 30652, 28581, 0, 0, 0, 0, -1, 0, 0, 0, 0, 0, 10416],[0, 0, 0, 28882, 0, 0, 45032, 39572, 0, 0, 0, 0, 0, 0, 44850, 0, 0, 0, 0, 0, 0, 0, 0, 0, 0, 0, 38877, 15875, 0, 0, 0, 0, 0, 0, 0, 0, 0, 0, 0, 26465, 27394, 0, 0, 29804, 0, 0, 0, 0, 0, 0, 0, 2237, 0, 0, 0, 0, 44743, 0, 0, 0, 43095, 0, 0, 0, 0, 0, 44426, 0, 17152, 0, 0, 0, 24733, 0, 0, 0, 0, 0, 0, 0, 0, 0, 0, 0, 0, 0, 0, -1, 34850, 0, 0, 0, 0],[30051, 0, 0, 0, 0, 0, 0, 29138, 42734, 32712, 0, 42974, 0, 21534, 18250, 0, 0, 41636, 0, 0, 27131, 0, 0, 18528, 30524, 0, 0, 0, 0, 0, 0, 0, 10389, 0, 0, 0, 0, 0, 0, 0, 0, 0, 35580, 37300, 0, 0, 0, 0, 25011, 0, 35479, 0, 0, 44092, 30413, 0, 0, 0, 0, 0, 13944, 0, 37043, 0, 0, 0, 0, 0, 20752, 0, 0, 0, 0, 0, 0, 0, 0, 0, 0, 0, 0, 0, 0, 24434, 0, 0, 0, 34850, -1, 0, 0, 27969, 0],[0, 0, 0, 0, 34415, 0, 0, 38991, 45734, 0, 0, 32185, 0, 22111, 0, 0, 37503, 0, 0, 0, 37556, 0, 8436, 0, 0, 0, 30771, 17433, 0, 0, 0, 0, 42413, 0, 24974, 0, 0, 0, 0, 0, 0, 0, 0, 0, 0, 0, 0, 0, 0, 0, 0, 44688, 0, 0, 0, 43793, 0, 25763, 0, 0, 40549, 0, 0, 0, 31413, 41967, 0, 0, 0, 0, 31115, 0, 0, 0, 0, 0, 0, 0, 0, 0, 0, 0, 0, 0, 0, 0, 0, 0, 0, -1, 0, 0, 0],[0, 0, 0, 0, 0, 0, 0, 0, 42741, 0, 0, 0, 0, 0, 0, 0, 0, 0, 0, 38843, 0, 0, 0, 0, 0, 0, 0, 0, 30374, 37570, 0, 0, 0, 30525, 0, 11195, 0, 0, 0, 0, 0, 0, 0, 0, 0, 0, 0, 6685, 0, 0, 0, 0, 27741, 0, 0, 0, 42721, 0, 0, 0, 0, 0, 0, 0, 32771, 33447, 0, 0, 0, 0, 32968, 0, 0, 0, 0, 0, 29153, 0, 31204, 0, 33448, 43669, 0, 0, 0, 0, 0, 0, 0, 0, -1, 0, 0],[0, 0, 0, 0, 44165, 46036, 0, 0, 0, 0, 0, 0, 0, 31887, 0, 0, 0, 0, 0, 0, 20509, 0, 0, 0, 28747, 0, 0, 43970, 45446, 45515, 0, 0, 41122, 40865, 0, 0, 0, 0, 38685, 0, 0, 0, 0, 0, 11789, 37549, 0, 0, 0, 0, 0, 39841, 0, 25239, 42049, 32814, 0, 0, 38693, 37543, 30375, 29668, 0, 0, 45856, 0, 0, 31430, 43843, 0, 0, 0, 0, 0, 0, 0, 0, 0, 0, 42580, 31254, 0, 0, 0, 0, 0, 0, 0, 27969, 0, 0, -1, 0],[0, 26195, 0, 34217, 0, 0, 0, 43551, 0, 0, 0, 0, 30949, 0, 0, 23766, 0, 0, 43905, 0, 0, 0, 0, 0, 15428, 39251, 41011, 22560, 0, 0, 0, 0, 0, 0, 0, 0, 44510, 0, 9342, 0, 20943, 0, 0, 25292, 0, 0, 32667, 25539, 0, 0, 36233, 0, 0, 0, 0, 0, 0, 42829, 0, 0, 0, 0, 0, 0, 0, 0, 0, 34261, 0, 24484, 14895, 0, 0, 0, 0, 39316, 0, 44394, 0, 27617, 0, 0, 0, 0, 0, 0, 10416, 0, 0, 0, 0, 0, -1]]